param n := 32;
param c := 100;
param w := 
1 99
2 98
3 97
4 97
5 95
6 95
7 93
8 92
9 91
10 90
11 87
12 83
13 80
14 77
15 72
16 66
17 66
18 65
19 62
20 61
21 60
22 57
23 56
24 52
25 46
26 34
27 28
28 20
29 13
30 8
31 5
32 3
;